units metal
boundary p p p
atom_style full
pair_style tersoff
neighbor 2.0 bin
neigh_modify delay 1

 


read_data /root/Desktop/MD_ring_stat/SiO_classical_MD/potential/SiO.data
replicate 1 1 1

pair_coeff * *  /root/Desktop/MD_ring_stat/SiO_classical_MD/potential/SiO.tersoff Si O  



group Si type 1
group O type 2
#create_bonds many SiO SiO 1 0.5 10

dump dmp all xyz 3000 dump.lammpstrj
 


variable mypot equal pe

# first number: number of steps to get current temp
# second number: calculate average n number of temp read above.
# third number: temp record (this must be larger than the one above )

variable mytemp equal temp
fix temp_info all ave/time 1 200 3000 v_mytemp file temperature.dat

#The cutoff used for pairwise computation (any pair style) and the
#associated neighbor list is the maximum cutoff that any compute
#can use. Atoms simply don't know any info about their neighbors
#further away than that.

# compute coord number
compute coor12 Si coord/atom cutoff 2 group O
compute coor11 Si coord/atom cutoff 2 group Si
compute coor22 O coord/atom cutoff 2 group O

compute sumcoor12 all reduce ave c_coor12
compute sumcoor11 all reduce ave c_coor11
compute sumcoor22 all reduce ave c_coor22


fix 12coord all ave/time  1 200 3000 c_sumcoor12 file Si-O_coord_number.dat  
fix 11coord all ave/time  1 200 3000  c_sumcoor11 file Si-Si_coord_number.dat  
fix 22coord all ave/time  1 200 3000  c_sumcoor22 file O-O_coord_number.dat  




# unit cell information
variable myvol equal vol
variable mylx equal lx
variable myly equal ly
variable mylz equal lz
fix cell_info all ave/time 1 200 3000 v_myvol v_mylx v_myly v_mylz file cell_volume.dat


fix potential_info all ave/time 1 200 3000 v_mypot file potential-energy.dat
thermo 1000


#seed

# shell "date +%s > temp_seed.dat" add this line if want random ones.
variable seed file temp_seed.dat
# The initial seed for this random number generator must be a positive integer less than or equal to 900 million.
variable TEMP equal random(330,430,${seed}%65535)
print "random seed: ${seed}, TEMP: ${TEMP}"

velocity all create 6000 ${seed} mom yes rot no dist gaussian
fix npt1 all npt temp 6000 5000 0.1 iso 0 0  1
timestep 0.001
run 200000
 
fix npt1 all npt temp 6000 2500 0.1 iso 0 0 1
run 200000


fix npt1 all npt temp 2500 1250 0.1 iso 0 0 1
run 200000

fix npt1 all npt temp 1250 625 0.1 iso 0 0 1
run 200000

fix npt1 all npt temp 500 10 0.1 iso 0 0 1
run 200000

fix npt1 all npt temp 10 10 0.1 iso 0 0 1
run 20000

write_data amorphousSiO.data  

